Test: battleship-15-29-sat.cnf
Options: -no-inverting-opt -sym-var-bump
WARNING: for repeatability, setting FPU to use double precision
============================[ Problem Statistics ]=============================
|                                                                             |
|  Number of symmetries:           22                                         |
|  Number of invertingSyms:         0                                         |
|  Number of variables:           435                                         |
|  Number of clauses:            3270                                         |
|  Parse time:                   0.00 s                                       |
|                                                                             |
============================[ Search Statistics ]==============================
| Conflicts |          ORIGINAL         |          LEARNT          | Progress |
|           |    Vars  Clauses Literals |    Limit  Clauses Lit/Cl |          |
===============================================================================
|       100 |     435     3270    12615 |     1199      138    198 |  0.001 % |
|       250 |     435     3270    12615 |     1318      340    153 |  0.001 % |
|       475 |     435     3270    12615 |     1450      624    139 |  0.001 % |
|       812 |     435     3270    12615 |     1595     1042    134 |  0.001 % |
|      1318 |     435     3270    12615 |     1755      825    136 |  0.001 % |
|      2077 |     435     3270    12615 |     1931     1769    140 |  0.001 % |
|      3216 |     435     3270    12615 |     2124     2139    158 |  0.001 % |
|      4924 |     435     3270    12615 |     2336     1189    172 |  0.001 % |
|      7486 |     435     3270    12615 |     2570     1926    162 |  0.001 % |
|     11330 |     435     3270    12615 |     2827     1411    179 |  0.001 % |
|     17096 |     435     3270    12615 |     3109     2827    194 |  0.001 % |
|     25745 |     435     3270    12615 |     3420     2423    200 |  0.001 % |
|     38719 |     435     3270    12615 |     3762     2846    171 |  0.001 % |
|     58180 |     435     3270    12615 |     4139     2129    134 |  0.001 % |
|     87372 |     435     3270    12615 |     4553     4091    188 |  0.001 % |
|    131161 |     435     3270    12615 |     5008     3135    187 |  0.001 % |
|    196845 |     435     3270    12615 |     5509     4009    190 |  0.001 % |
|    295371 |     435     3270    12615 |     6060     3940    186 |  0.001 % |
|    443160 |     435     3270    12615 |     6666     4430    177 |  0.001 % |
|    664843 |     435     3270    12615 |     7332     5321    192 |  0.001 % |
|    997368 |     435     3270    12615 |     8066     6204    180 |  0.001 % |
|   1496156 |     435     3270    12615 |     8872     6932    178 |  0.001 % |
|   2244338 |     435     3270    12615 |     9760     5835    163 |  0.001 % |
===============================================================================
restarts              : 4095
conflicts             : 2319190        (12997 /sec)
symconflicts          : 154785         (867 /sec)
decisions             : 4906891        (0.00 % random) (27498 /sec)
propagations          : 55504481       (311042 /sec)
sympropagations       : 618947         (3469 /sec)
conflict literals     : 441997262      (5.13 % deleted)
literals     : 441997262      (5.13 % deleted)

HEURISTIC USAGES
random                : 0           
activity w/ lookahead : 0           
activity no lookahead : 0           
original sp           : 4906890     
sym count             : 0           

Memory used           : 35.00 MB
CPU time              : 178.447 s

SATISFIABLE
